c numero: 64
c nombre: n-50-d-0.3
c densidad: 0.3
p edges 50 343
e 1 3
e 1 22
e 1 25
e 1 26
e 1 29
e 1 30
e 1 39
e 1 41
e 1 46
e 1 47
e 1 50
e 2 4
e 2 5
e 2 8
e 2 9
e 2 11
e 2 21
e 2 23
e 2 24
e 2 28
e 2 30
e 2 33
e 2 36
e 2 45
e 2 49
e 3 4
e 3 5
e 3 9
e 3 10
e 3 12
e 3 13
e 3 19
e 3 24
e 3 37
e 3 38
e 3 39
e 3 40
e 3 45
e 4 5
e 4 8
e 4 10
e 4 13
e 4 17
e 4 19
e 4 33
e 4 34
e 4 36
e 4 40
e 4 48
e 4 49
e 5 8
e 5 10
e 5 14
e 5 15
e 5 16
e 5 19
e 5 20
e 5 27
e 5 30
e 5 31
e 5 32
e 5 35
e 5 36
e 5 37
e 5 39
e 5 40
e 5 45
e 5 48
e 6 7
e 6 8
e 6 9
e 6 10
e 6 24
e 6 25
e 6 28
e 6 36
e 6 42
e 7 9
e 7 11
e 7 17
e 7 22
e 7 23
e 7 26
e 7 27
e 7 29
e 7 30
e 7 31
e 7 33
e 7 37
e 7 38
e 7 43
e 7 44
e 8 9
e 8 24
e 8 27
e 8 28
e 8 37
e 8 41
e 8 42
e 8 45
e 8 49
e 9 11
e 9 13
e 9 14
e 9 15
e 9 16
e 9 17
e 9 18
e 9 21
e 9 32
e 9 35
e 9 36
e 9 49
e 10 12
e 10 14
e 10 17
e 10 18
e 10 19
e 10 21
e 10 23
e 10 25
e 10 26
e 10 27
e 10 29
e 10 33
e 10 34
e 10 37
e 10 40
e 10 41
e 10 43
e 10 44
e 10 49
e 11 13
e 11 16
e 11 19
e 11 24
e 11 25
e 11 26
e 11 27
e 11 28
e 11 33
e 11 34
e 11 36
e 11 40
e 11 44
e 11 45
e 12 22
e 12 39
e 12 40
e 12 44
e 12 46
e 12 49
e 13 17
e 13 20
e 13 22
e 13 29
e 13 30
e 13 31
e 13 34
e 13 40
e 13 41
e 13 43
e 13 45
e 13 47
e 14 21
e 14 22
e 14 26
e 14 29
e 14 37
e 14 39
e 14 46
e 14 50
e 15 20
e 15 29
e 15 30
e 15 37
e 15 38
e 15 41
e 15 48
e 15 49
e 16 18
e 16 19
e 16 20
e 16 28
e 16 29
e 16 30
e 16 32
e 16 33
e 16 39
e 16 40
e 16 48
e 16 49
e 17 18
e 17 19
e 17 20
e 17 23
e 17 25
e 17 26
e 17 33
e 17 35
e 17 37
e 17 41
e 17 50
e 18 25
e 18 27
e 18 28
e 18 41
e 18 42
e 18 43
e 18 44
e 18 46
e 19 20
e 19 28
e 19 30
e 19 35
e 19 37
e 19 39
e 19 41
e 19 44
e 19 45
e 19 46
e 19 47
e 20 22
e 20 30
e 20 35
e 20 38
e 20 40
e 20 45
e 21 25
e 21 26
e 21 37
e 21 43
e 21 45
e 21 50
e 22 35
e 22 43
e 22 45
e 22 46
e 22 50
e 23 25
e 23 26
e 23 31
e 23 34
e 23 37
e 23 41
e 23 43
e 23 45
e 24 25
e 24 26
e 24 27
e 24 33
e 24 35
e 24 41
e 24 44
e 25 26
e 25 30
e 25 32
e 25 34
e 25 39
e 25 40
e 25 45
e 25 47
e 25 50
e 26 27
e 26 31
e 26 40
e 26 43
e 26 45
e 26 46
e 27 30
e 27 36
e 27 37
e 27 39
e 27 44
e 27 46
e 27 47
e 28 29
e 28 32
e 28 33
e 28 36
e 28 40
e 28 42
e 28 45
e 29 31
e 29 33
e 29 34
e 29 36
e 29 37
e 29 39
e 29 42
e 29 46
e 30 38
e 30 40
e 30 46
e 30 48
e 31 33
e 31 41
e 31 47
e 31 48
e 31 49
e 32 35
e 32 40
e 32 43
e 32 44
e 32 45
e 32 46
e 32 47
e 32 49
e 32 50
e 33 40
e 34 37
e 34 38
e 34 41
e 34 42
e 34 45
e 34 48
e 34 50
e 35 37
e 36 38
e 36 41
e 36 45
e 37 39
e 37 44
e 37 48
e 38 43
e 38 45
e 38 50
e 39 41
e 39 44
e 39 46
e 39 47
e 40 44
e 40 48
e 41 45
e 41 46
e 42 43
e 42 44
e 42 46
e 45 47
e 45 48
e 46 49
e 47 48
e 47 50
